(declare-const i_init Int)
(declare-const j_init Int)
(declare-const c_0 Int)
(declare-const c_1 Int)
(declare-const c_2 Int)
(declare-const c_3 Int)
(declare-const c_4 Int)
(declare-const c_5 Int)
(declare-const c_6 Int)
(declare-const c_7 Int)
(declare-const c_8 Int)
(declare-const c_9 Int)
(declare-const c_10 Int)
(declare-const c_11 Int)
(declare-const c_12 Int)
(declare-const c_13 Int)
(declare-const c_14 Int)
(declare-const c_15 Int)
(declare-const c_16 Int)
(declare-const c_17 Int)
(declare-const c_18 Int)
(declare-const c_19 Int)
(declare-const c_20 Int)
(declare-const c_21 Int)
(declare-const c_22 Int)
(declare-const c_23 Int)
(declare-const c_24 Int)
(declare-const c_25 Int)
(declare-const c_26 Int)
(assert (< c_0 0))
(assert (and (>= (+ (* 1 c_1 ) (* (- 1) i_init ) ) 0) (>= (+ (* (- 1) c_1 ) (* 1 i_init ) ) 0) (>= (+ (* 1 c_2 ) (* (- 1) j_init ) ) 0) (>= (+ (* (- 1) c_2 ) (* 1 j_init ) ) 0) ))
(assert (forall ((i Real) (j Real) ) (=> (and (>= (+ (* (- 1) 1) (* (- 1) c_3 ) (* (- 1) c_4 i ) (* (- 1) c_5 j ) ) 0) (>= (+ (* 1 c_1 ) (* (- 1) i ) ) 0) (>= (+ (* (- 1) c_1 ) (* 1 i ) ) 0) (>= (+ (* 1 c_2 ) (* (- 1) j ) ) 0) (>= (+ (* (- 1) c_2 ) (* 1 j ) ) 0) ) (>= (+ (* 1 c_10 i ) (* 1 c_11 j ) (* 1 c_9 ) ) 0) )))
(assert (forall ((i Real) (j Real) ) (=> (and (>= (+ (* (- 1) 1) (* (- 1) c_3 ) (* (- 1) c_4 i ) (* (- 1) c_5 j ) ) 0) (>= (+ (* 1 c_1 ) (* (- 1) i ) ) 0) (>= (+ (* (- 1) c_1 ) (* 1 i ) ) 0) (>= (+ (* 1 c_2 ) (* (- 1) j ) ) 0) (>= (+ (* (- 1) c_2 ) (* 1 j ) ) 0) ) (>= (+ (* 1 c_12 ) (* 1 c_13 i ) (* 1 c_14 j ) ) 0) )))
(assert (forall ((i Real) (j Real) ) (=> (and (>= (+ (* (- 1) 1) (* (- 1) c_6 ) (* (- 1) c_7 i ) (* (- 1) c_8 j ) ) 0) (>= (+ (* 1 c_1 ) (* (- 1) i ) ) 0) (>= (+ (* (- 1) c_1 ) (* 1 i ) ) 0) (>= (+ (* 1 c_2 ) (* (- 1) j ) ) 0) (>= (+ (* (- 1) c_2 ) (* 1 j ) ) 0) ) (>= (+ (* 1 c_10 i ) (* 1 c_11 j ) (* 1 c_9 ) ) 0) )))
(assert (forall ((i Real) (j Real) ) (=> (and (>= (+ (* (- 1) 1) (* (- 1) c_6 ) (* (- 1) c_7 i ) (* (- 1) c_8 j ) ) 0) (>= (+ (* 1 c_1 ) (* (- 1) i ) ) 0) (>= (+ (* (- 1) c_1 ) (* 1 i ) ) 0) (>= (+ (* 1 c_2 ) (* (- 1) j ) ) 0) (>= (+ (* (- 1) c_2 ) (* 1 j ) ) 0) ) (>= (+ (* 1 c_12 ) (* 1 c_13 i ) (* 1 c_14 j ) ) 0) )))
(assert (forall ((i Real) (j Real) ) (=> (and (>= (+ (* (- 1) 1) (* (- 1) c_15 ) (* (- 1) c_16 i ) (* (- 1) c_17 ) (* (- 1) c_17 j ) ) 0) (>= (+ (* (- 1) 1) (* 1 j ) ) 0) (>= (+ (* 1 c_15 ) (* 1 c_16 i ) (* 1 c_17 j ) ) 0) (>= (+ (* 1 c_18 ) (* 1 c_19 i ) (* 1 c_20 j ) ) 0) ) (>= (+ (* 1 c_21 ) (* 1 c_22 i ) (* 1 c_23 ) (* 1 c_23 j ) ) 0) )))
(assert (forall ((i Real) (j Real) ) (=> (and (>= (+ (* (- 1) 1) (* (- 1) c_15 ) (* (- 1) c_16 i ) (* (- 1) c_17 ) (* (- 1) c_17 j ) ) 0) (>= (+ (* (- 1) 1) (* 1 j ) ) 0) (>= (+ (* 1 c_15 ) (* 1 c_16 i ) (* 1 c_17 j ) ) 0) (>= (+ (* 1 c_18 ) (* 1 c_19 i ) (* 1 c_20 j ) ) 0) ) (>= (+ (* 1 c_24 ) (* 1 c_25 i ) (* 1 c_26 ) (* 1 c_26 j ) ) 0) )))
(assert (forall ((i Real) (j Real) ) (=> (and (>= (+ (* (- 1) 1) (* (- 1) c_18 ) (* (- 1) c_19 i ) (* (- 1) c_20 ) (* (- 1) c_20 j ) ) 0) (>= (+ (* (- 1) 1) (* 1 j ) ) 0) (>= (+ (* 1 c_15 ) (* 1 c_16 i ) (* 1 c_17 j ) ) 0) (>= (+ (* 1 c_18 ) (* 1 c_19 i ) (* 1 c_20 j ) ) 0) ) (>= (+ (* 1 c_21 ) (* 1 c_22 i ) (* 1 c_23 ) (* 1 c_23 j ) ) 0) )))
(assert (forall ((i Real) (j Real) ) (=> (and (>= (+ (* (- 1) 1) (* (- 1) c_18 ) (* (- 1) c_19 i ) (* (- 1) c_20 ) (* (- 1) c_20 j ) ) 0) (>= (+ (* (- 1) 1) (* 1 j ) ) 0) (>= (+ (* 1 c_15 ) (* 1 c_16 i ) (* 1 c_17 j ) ) 0) (>= (+ (* 1 c_18 ) (* 1 c_19 i ) (* 1 c_20 j ) ) 0) ) (>= (+ (* 1 c_24 ) (* 1 c_25 i ) (* 1 c_26 ) (* 1 c_26 j ) ) 0) )))
(assert (forall ((i Real) (j Real) ) (=> (and (>= (+ (* (- 1) 1) (* (- 1) c_15 ) (* (- 1) c_16 i ) (* (- 1) c_17 ) (* (- 1) c_17 j ) ) 0) (>= (+ (* (- 1) 1) (* 1 j ) ) 0) (>= (+ (* 1 c_21 ) (* 1 c_22 i ) (* 1 c_23 j ) ) 0) (>= (+ (* 1 c_24 ) (* 1 c_25 i ) (* 1 c_26 j ) ) 0) ) (>= (+ (* 1 c_21 ) (* 1 c_22 i ) (* 1 c_23 ) (* 1 c_23 j ) ) 0) )))
(assert (forall ((i Real) (j Real) ) (=> (and (>= (+ (* (- 1) 1) (* (- 1) c_15 ) (* (- 1) c_16 i ) (* (- 1) c_17 ) (* (- 1) c_17 j ) ) 0) (>= (+ (* (- 1) 1) (* 1 j ) ) 0) (>= (+ (* 1 c_21 ) (* 1 c_22 i ) (* 1 c_23 j ) ) 0) (>= (+ (* 1 c_24 ) (* 1 c_25 i ) (* 1 c_26 j ) ) 0) ) (>= (+ (* 1 c_24 ) (* 1 c_25 i ) (* 1 c_26 ) (* 1 c_26 j ) ) 0) )))
(assert (forall ((i Real) (j Real) ) (=> (and (>= (+ (* (- 1) 1) (* (- 1) c_18 ) (* (- 1) c_19 i ) (* (- 1) c_20 ) (* (- 1) c_20 j ) ) 0) (>= (+ (* (- 1) 1) (* 1 j ) ) 0) (>= (+ (* 1 c_21 ) (* 1 c_22 i ) (* 1 c_23 j ) ) 0) (>= (+ (* 1 c_24 ) (* 1 c_25 i ) (* 1 c_26 j ) ) 0) ) (>= (+ (* 1 c_21 ) (* 1 c_22 i ) (* 1 c_23 ) (* 1 c_23 j ) ) 0) )))
(assert (forall ((i Real) (j Real) ) (=> (and (>= (+ (* (- 1) 1) (* (- 1) c_18 ) (* (- 1) c_19 i ) (* (- 1) c_20 ) (* (- 1) c_20 j ) ) 0) (>= (+ (* (- 1) 1) (* 1 j ) ) 0) (>= (+ (* 1 c_21 ) (* 1 c_22 i ) (* 1 c_23 j ) ) 0) (>= (+ (* 1 c_24 ) (* 1 c_25 i ) (* 1 c_26 j ) ) 0) ) (>= (+ (* 1 c_24 ) (* 1 c_25 i ) (* 1 c_26 ) (* 1 c_26 j ) ) 0) )))
(assert (forall ((i Real) (j Real) ) (=> (and (>= (+ (* (- 1) 1) (* (- 1) c_3 ) (* (- 1) c_4 ) (* (- 1) c_4 i ) (* (- 1) c_5 j ) ) 0) (>= (* (- 1) j ) 0) (>= (+ (* 1 c_15 ) (* 1 c_16 i ) (* 1 c_17 j ) ) 0) (>= (+ (* 1 c_18 ) (* 1 c_19 i ) (* 1 c_20 j ) ) 0) ) (>= (+ (* 1 c_10 ) (* 1 c_10 i ) (* 1 c_11 j ) (* 1 c_9 ) ) 0) )))
(assert (forall ((i Real) (j Real) ) (=> (and (>= (+ (* (- 1) 1) (* (- 1) c_3 ) (* (- 1) c_4 ) (* (- 1) c_4 i ) (* (- 1) c_5 j ) ) 0) (>= (* (- 1) j ) 0) (>= (+ (* 1 c_15 ) (* 1 c_16 i ) (* 1 c_17 j ) ) 0) (>= (+ (* 1 c_18 ) (* 1 c_19 i ) (* 1 c_20 j ) ) 0) ) (>= (+ (* 1 c_12 ) (* 1 c_13 ) (* 1 c_13 i ) (* 1 c_14 j ) ) 0) )))
(assert (forall ((i Real) (j Real) ) (=> (and (>= (+ (* (- 1) 1) (* (- 1) c_6 ) (* (- 1) c_7 ) (* (- 1) c_7 i ) (* (- 1) c_8 j ) ) 0) (>= (* (- 1) j ) 0) (>= (+ (* 1 c_15 ) (* 1 c_16 i ) (* 1 c_17 j ) ) 0) (>= (+ (* 1 c_18 ) (* 1 c_19 i ) (* 1 c_20 j ) ) 0) ) (>= (+ (* 1 c_10 ) (* 1 c_10 i ) (* 1 c_11 j ) (* 1 c_9 ) ) 0) )))
(assert (forall ((i Real) (j Real) ) (=> (and (>= (+ (* (- 1) 1) (* (- 1) c_6 ) (* (- 1) c_7 ) (* (- 1) c_7 i ) (* (- 1) c_8 j ) ) 0) (>= (* (- 1) j ) 0) (>= (+ (* 1 c_15 ) (* 1 c_16 i ) (* 1 c_17 j ) ) 0) (>= (+ (* 1 c_18 ) (* 1 c_19 i ) (* 1 c_20 j ) ) 0) ) (>= (+ (* 1 c_12 ) (* 1 c_13 ) (* 1 c_13 i ) (* 1 c_14 j ) ) 0) )))
(assert (forall ((i Real) (j Real) ) (=> (and (>= (+ (* (- 1) 1) (* (- 1) c_3 ) (* (- 1) c_4 ) (* (- 1) c_4 i ) (* (- 1) c_5 j ) ) 0) (>= (* (- 1) j ) 0) (>= (+ (* 1 c_21 ) (* 1 c_22 i ) (* 1 c_23 j ) ) 0) (>= (+ (* 1 c_24 ) (* 1 c_25 i ) (* 1 c_26 j ) ) 0) ) (>= (+ (* 1 c_10 ) (* 1 c_10 i ) (* 1 c_11 j ) (* 1 c_9 ) ) 0) )))
(assert (forall ((i Real) (j Real) ) (=> (and (>= (+ (* (- 1) 1) (* (- 1) c_3 ) (* (- 1) c_4 ) (* (- 1) c_4 i ) (* (- 1) c_5 j ) ) 0) (>= (* (- 1) j ) 0) (>= (+ (* 1 c_21 ) (* 1 c_22 i ) (* 1 c_23 j ) ) 0) (>= (+ (* 1 c_24 ) (* 1 c_25 i ) (* 1 c_26 j ) ) 0) ) (>= (+ (* 1 c_12 ) (* 1 c_13 ) (* 1 c_13 i ) (* 1 c_14 j ) ) 0) )))
(assert (forall ((i Real) (j Real) ) (=> (and (>= (+ (* (- 1) 1) (* (- 1) c_6 ) (* (- 1) c_7 ) (* (- 1) c_7 i ) (* (- 1) c_8 j ) ) 0) (>= (* (- 1) j ) 0) (>= (+ (* 1 c_21 ) (* 1 c_22 i ) (* 1 c_23 j ) ) 0) (>= (+ (* 1 c_24 ) (* 1 c_25 i ) (* 1 c_26 j ) ) 0) ) (>= (+ (* 1 c_10 ) (* 1 c_10 i ) (* 1 c_11 j ) (* 1 c_9 ) ) 0) )))
(assert (forall ((i Real) (j Real) ) (=> (and (>= (+ (* (- 1) 1) (* (- 1) c_6 ) (* (- 1) c_7 ) (* (- 1) c_7 i ) (* (- 1) c_8 j ) ) 0) (>= (* (- 1) j ) 0) (>= (+ (* 1 c_21 ) (* 1 c_22 i ) (* 1 c_23 j ) ) 0) (>= (+ (* 1 c_24 ) (* 1 c_25 i ) (* 1 c_26 j ) ) 0) ) (>= (+ (* 1 c_12 ) (* 1 c_13 ) (* 1 c_13 i ) (* 1 c_14 j ) ) 0) )))
(assert (forall ((i Real) (j Real) ) (=> (and (>= (+ (* (- 1) 1) (* (- 1) c_15 ) (* (- 1) c_16 i ) (* (- 1) c_17 i ) ) 0) (>= (+ (* 9 1) (* (- 1) i ) ) 0) (>= (+ (* 1 c_3 ) (* 1 c_4 i ) (* 1 c_5 j ) ) 0) (>= (+ (* 1 c_6 ) (* 1 c_7 i ) (* 1 c_8 j ) ) 0) ) (>= (+ (* 1 c_21 ) (* 1 c_22 i ) (* 1 c_23 i ) ) 0) )))
(assert (forall ((i Real) (j Real) ) (=> (and (>= (+ (* (- 1) 1) (* (- 1) c_15 ) (* (- 1) c_16 i ) (* (- 1) c_17 i ) ) 0) (>= (+ (* 9 1) (* (- 1) i ) ) 0) (>= (+ (* 1 c_3 ) (* 1 c_4 i ) (* 1 c_5 j ) ) 0) (>= (+ (* 1 c_6 ) (* 1 c_7 i ) (* 1 c_8 j ) ) 0) ) (>= (+ (* 1 c_24 ) (* 1 c_25 i ) (* 1 c_26 i ) ) 0) )))
(assert (forall ((i Real) (j Real) ) (=> (and (>= (+ (* (- 1) 1) (* (- 1) c_18 ) (* (- 1) c_19 i ) (* (- 1) c_20 i ) ) 0) (>= (+ (* 9 1) (* (- 1) i ) ) 0) (>= (+ (* 1 c_3 ) (* 1 c_4 i ) (* 1 c_5 j ) ) 0) (>= (+ (* 1 c_6 ) (* 1 c_7 i ) (* 1 c_8 j ) ) 0) ) (>= (+ (* 1 c_21 ) (* 1 c_22 i ) (* 1 c_23 i ) ) 0) )))
(assert (forall ((i Real) (j Real) ) (=> (and (>= (+ (* (- 1) 1) (* (- 1) c_18 ) (* (- 1) c_19 i ) (* (- 1) c_20 i ) ) 0) (>= (+ (* 9 1) (* (- 1) i ) ) 0) (>= (+ (* 1 c_3 ) (* 1 c_4 i ) (* 1 c_5 j ) ) 0) (>= (+ (* 1 c_6 ) (* 1 c_7 i ) (* 1 c_8 j ) ) 0) ) (>= (+ (* 1 c_24 ) (* 1 c_25 i ) (* 1 c_26 i ) ) 0) )))
(assert (forall ((i Real) (j Real) ) (=> (and (>= (+ (* (- 1) 1) (* (- 1) c_15 ) (* (- 1) c_16 i ) (* (- 1) c_17 i ) ) 0) (>= (+ (* 9 1) (* (- 1) i ) ) 0) (>= (+ (* 1 c_10 i ) (* 1 c_11 j ) (* 1 c_9 ) ) 0) (>= (+ (* 1 c_12 ) (* 1 c_13 i ) (* 1 c_14 j ) ) 0) ) (>= (+ (* 1 c_21 ) (* 1 c_22 i ) (* 1 c_23 i ) ) 0) )))
(assert (forall ((i Real) (j Real) ) (=> (and (>= (+ (* (- 1) 1) (* (- 1) c_15 ) (* (- 1) c_16 i ) (* (- 1) c_17 i ) ) 0) (>= (+ (* 9 1) (* (- 1) i ) ) 0) (>= (+ (* 1 c_10 i ) (* 1 c_11 j ) (* 1 c_9 ) ) 0) (>= (+ (* 1 c_12 ) (* 1 c_13 i ) (* 1 c_14 j ) ) 0) ) (>= (+ (* 1 c_24 ) (* 1 c_25 i ) (* 1 c_26 i ) ) 0) )))
(assert (forall ((i Real) (j Real) ) (=> (and (>= (+ (* (- 1) 1) (* (- 1) c_18 ) (* (- 1) c_19 i ) (* (- 1) c_20 i ) ) 0) (>= (+ (* 9 1) (* (- 1) i ) ) 0) (>= (+ (* 1 c_10 i ) (* 1 c_11 j ) (* 1 c_9 ) ) 0) (>= (+ (* 1 c_12 ) (* 1 c_13 i ) (* 1 c_14 j ) ) 0) ) (>= (+ (* 1 c_21 ) (* 1 c_22 i ) (* 1 c_23 i ) ) 0) )))
(assert (forall ((i Real) (j Real) ) (=> (and (>= (+ (* (- 1) 1) (* (- 1) c_18 ) (* (- 1) c_19 i ) (* (- 1) c_20 i ) ) 0) (>= (+ (* 9 1) (* (- 1) i ) ) 0) (>= (+ (* 1 c_10 i ) (* 1 c_11 j ) (* 1 c_9 ) ) 0) (>= (+ (* 1 c_12 ) (* 1 c_13 i ) (* 1 c_14 j ) ) 0) ) (>= (+ (* 1 c_24 ) (* 1 c_25 i ) (* 1 c_26 i ) ) 0) )))
(assert (forall ((i Real) (j Real) ) (=> (and (>= (+ (* (- 10) 1) (* 1 i ) ) 0) (>= (+ (* 1 c_3 ) (* 1 c_4 i ) (* 1 c_5 j ) ) 0) (>= (+ (* 1 c_6 ) (* 1 c_7 i ) (* 1 c_8 j ) ) 0) ) (>= (* 1 c_0 ) 0) )))
(assert (forall ((i Real) (j Real) ) (=> (and (>= (+ (* (- 10) 1) (* 1 i ) ) 0) (>= (+ (* 1 c_10 i ) (* 1 c_11 j ) (* 1 c_9 ) ) 0) (>= (+ (* 1 c_12 ) (* 1 c_13 i ) (* 1 c_14 j ) ) 0) ) (>= (* 1 c_0 ) 0) )))
(check-sat)
(get-model)

